(set-logic QF_LIA)
(set-info :ran/ran2.smt2)
(set-info :smt-lib-version 2.0)
(declare-fun x1 () Int)
(declare-fun x2 () Int)
(declare-fun x3 () Int)
(declare-fun x4 () Int)
(declare-fun x5 () Int)
(declare-fun x6 () Int)
(assert (<= (+ (* (- 3) x1) (* 8 x2) (* 0 x3) (* 8 x4) (* 10 x5) (* 0 x6) ) 1757))
(assert (<= (+ (* 5 x1) (* 0 x2) (* (- 7) x3) (* (- 2) x4) (* 8 x5) (* (- 5) x6) ) 927))
(assert (<= (+ (* (- 4) x1) (* (- 4) x2) (* (- 2) x3) (* 0 x4) (* (- 3) x5) (* (- 3) x6) ) 9373))
(assert (<= (+ (* (- 8) x1) (* (- 7) x2) (* 8 x3) (* (- 2) x4) (* 2 x5) (* 2 x6) ) (- 6914)))
(assert (<= (+ (* (- 2) x1) (* 2 x2) (* (- 7) x3) (* 3 x4) (* (- 3) x5) (* 1 x6) ) 8933))
(assert (<= (+ (* (- 3) x1) (* 9 x2) (* 5 x3) (* (- 9) x4) (* (- 2) x5) (* 7 x6) ) 955))
(assert (<= (+ (* (- 7) x1) (* (- 9) x2) (* 9 x3) (* (- 1) x4) (* (- 4) x5) (* (- 4) x6) ) 2340))
(assert (<= (+ (* 1 x1) (* 1 x2) (* (- 5) x3) (* 4 x4) (* 4 x5) (* (- 8) x6) ) (- 4493)))
(assert (<= (+ (* (- 7) x1) (* 2 x2) (* (- 2) x3) (* 1 x4) (* (- 8) x5) (* (- 1) x6) ) (- 9630)))
(assert (<= (+ (* (- 1) x1) (* 8 x2) (* (- 1) x3) (* 4 x4) (* 6 x5) (* (- 7) x6) ) (- 1555)))
(assert (<= (+ (* (- 7) x1) (* 10 x2) (* (- 7) x3) (* (- 3) x4) (* 10 x5) (* (- 9) x6) ) 4326))
(assert (<= (+ (* (- 7) x1) (* (- 5) x2) (* 1 x3) (* 4 x4) (* 6 x5) (* 4 x6) ) (- 5843)))
(assert (<= (+ (* 1 x1) (* 0 x2) (* 0 x3) (* 0 x4) (* 0 x5) (* 0 x6) ) 10000))
(assert (<= (+ (* (- 1) x1) (* 0 x2) (* 0 x3) (* 0 x4) (* 0 x5) (* 0 x6) ) 10000))
(assert (<= (+ (* 0 x1) (* 1 x2) (* 0 x3) (* 0 x4) (* 0 x5) (* 0 x6) ) 10000))
(assert (<= (+ (* 0 x1) (* (- 1) x2) (* 0 x3) (* 0 x4) (* 0 x5) (* 0 x6) ) 10000))
(assert (<= (+ (* 0 x1) (* 0 x2) (* 1 x3) (* 0 x4) (* 0 x5) (* 0 x6) ) 10000))
(assert (<= (+ (* 0 x1) (* 0 x2) (* (- 1) x3) (* 0 x4) (* 0 x5) (* 0 x6) ) 10000))
(assert (<= (+ (* 0 x1) (* 0 x2) (* 0 x3) (* 1 x4) (* 0 x5) (* 0 x6) ) 10000))
(assert (<= (+ (* 0 x1) (* 0 x2) (* 0 x3) (* (- 1) x4) (* 0 x5) (* 0 x6) ) 10000))
(assert (<= (+ (* 0 x1) (* 0 x2) (* 0 x3) (* 0 x4) (* 1 x5) (* 0 x6) ) 10000))
(assert (<= (+ (* 0 x1) (* 0 x2) (* 0 x3) (* 0 x4) (* (- 1) x5) (* 0 x6) ) 10000))
(assert (<= (+ (* 0 x1) (* 0 x2) (* 0 x3) (* 0 x4) (* 0 x5) (* 1 x6) ) 10000))
(assert (<= (+ (* 0 x1) (* 0 x2) (* 0 x3) (* 0 x4) (* 0 x5) (* (- 1) x6) ) 10000))
